194
0 162 171 62 135 97 133 179 20 151 
170 93 79 167 53 61 68 82 158 121 
70 19 149 148 2 12 123 117 159 86 
183 181 165 105 182 190 169 94 92 14 
9 100 131 60 140 104 178 64 85 99 
187 54 152 50 129 166 107 184 118 71 
56 161 35 185 119 115 114 186 188 108 
172 33 3 77 88 26 29 32 177 43 
136 125 89 180 45 25 66 160 24 191 
163 153 47 37 138 95 109 36 16 63 
90 7 139 23 175 31 11 189 144 57 
52 130 46 155 17 10 41 18 6 145 
30 146 81 193 1 156 110 51 4 141 
15 58 157 22 27 112 124 69 84 75 
132 72 142 147 102 192 143 42 67 65 
98 174 13 74 154 55 127 168 39 34 
49 28 128 150 5 173 87 116 101 40 
73 21 164 59 96 122 76 91 8 126 
113 48 134 38 120 44 106 137 80 83 
103 78 176 111 
